Problem:    
Rows:       260
Columns:    89 (72 integer, 72 binary)
Non-zeros:  936
Status:     INTEGER OPTIMAL
Objective:  value = 116.5918 (MINimum)

   No.   Row name        Activity     Lower bound   Upper bound
------ ------------    ------------- ------------- -------------
     1 r.5                   1140.59             0               
     2 r.6                  -997.587      -1001.59               
     3 r.7                   116.592             0               
     4 r.8                   49.0166      -982.844               
     5 r.9                   1140.59             0               
     6 r.10                 -974.983       -1001.4               
     7 r.11                  116.592             0               
     8 r.12                   3.9995      -982.447               
     9 r.13                  116.592             0               
    10 r.14                  65.9767      -1021.46               
    11 r.15                  1140.59             0               
    12 r.16                 -993.642      -1018.73               
    13 r.17                  116.592             0               
    14 r.18                    54.67      -1018.96               
    15 r.19                  1140.59             0               
    16 r.20                 -1011.88      -1015.88               
    17 r.21                  116.592             0               
    18 r.22                  83.5675       -1013.2               
    19 r.23                  1140.59             0               
    20 r.24                 -940.433      -1003.45               
    21 r.25                  116.592             0               
    22 r.26                   3.9995      -1022.28               
    23 r.27                  1140.59             0               
    24 r.28                    -1020         -1020               
    25 r.29                  1140.59             0               
    26 r.30                 -907.408      -956.425               
    27 r.31                  116.592             0               
    28 r.32                  116.592      -888.291               
    29 r.33                  116.592             0               
    30 r.34                  116.592      -994.818               
    31 r.35                  1140.59             0               
    32 r.36                 -907.408      -990.976               
    33 r.37                        1             1             = 
    34 r.38                        1             1             = 
    35 r.39                        1             1             = 
    36 r.40                        1             1             = 
    37 r.41                        1             1             = 
    38 r.42                        1             1             = 
    39 r.43                        1             1             = 
    40 r.44                        1             1             = 
    41 r.45                        2             2               
    42 r.46                       -2         -1025               
    43 r.47                  -1001.4       -1001.4               
    44 r.48                     1024             2               
    45 r.49                    -1024         -1025               
    46 r.50                  2002.98      -982.447               
    47 r.51                     1025             2               
    48 r.52                    -1025         -1025               
    49 r.53                  2079.08      -1021.46               
    50 r.54                     1025             2               
    51 r.55                    -1025         -1025               
    52 r.56                  2038.67      -1018.73               
    53 r.57                     1025             2               
    54 r.58                    -1025         -1025               
    55 r.59                  2076.26      -1018.96               
    56 r.60                     1025             2               
    57 r.61                    -1025         -1025               
    58 r.62                   2011.1      -1015.88               
    59 r.63                     1025             2               
    60 r.64                    -1025         -1025               
    61 r.65                  2105.15       -1013.2               
    62 r.66                     1025             2               
    63 r.67                    -1025         -1025               
    64 r.68                  2082.55      -1003.45               
    65 r.69                        0             0               
    66 r.70                  45.0171             0               
    67 r.71                        0             0               
    68 r.72                  45.0171             0               
    69 r.73                 -933.821      -956.425               
    70 r.74                  90.1789      -888.291               
    71 r.75                 -956.425      -956.425               
    72 r.76                  67.5752      -888.291               
    73 r.77                  90.1789      -994.818               
    74 r.78                 -933.821      -990.976               
    75 r.79                  67.5752      -994.818               
    76 r.80                 -956.425      -990.976               
    77 r.81                        2             2               
    78 r.82                       -2         -1025               
    79 r.83                   1001.4       22.4134               
    80 r.84                     1024             2               
    81 r.85                    -1024         -1025               
    82 r.86                  2093.02       41.1565               
    83 r.87                     1025             2               
    84 r.88                    -1025         -1025               
    85 r.89                  2056.48      -1021.46               
    86 r.90                     1025             2               
    87 r.91                    -1025         -1025               
    88 r.92                  2083.69      -1018.73               
    89 r.93                     1025             2               
    90 r.94                    -1025         -1025               
    91 r.95                  2053.65      -1018.96               
    92 r.96                     1025             2               
    93 r.97                    -1025         -1025               
    94 r.98                  2056.12      -1015.88               
    95 r.99                     1025             2               
    96 r.100                   -1025         -1025               
    97 r.101                 2082.55       -1013.2               
    98 r.102                    1025             2               
    99 r.103                   -1025         -1025               
   100 r.104                 2127.57      -1003.45               
   101 r.105                 22.4134             0               
   102 r.106                       0             0               
   103 r.107                 22.4134             0               
   104 r.108                       0             0               
   105 r.109                -956.425      -956.425               
   106 r.110                 67.5752      -888.291               
   107 r.111                -911.408      -956.425               
   108 r.112                 112.592      -888.291               
   109 r.113                    1025             2               
   110 r.114                   -1025         -1025               
   111 r.115                 2115.58      -994.818               
   112 r.116                    1025             2               
   113 r.117                   -1025         -1025               
   114 r.118                 2160.59      -990.976               
   115 r.119                    1025             2               
   116 r.120                   -1025         -1025               
   117 r.121                  2025.4       22.4134               
   118 r.122                    1025             2               
   119 r.123                   -1025         -1025               
   120 r.124                    2048       41.1565               
   121 r.125                    1025             2               
   122 r.126                   -1025         -1025               
   123 r.127                    2048       22.6037               
   124 r.128                    1025             2               
   125 r.129                   -1025         -1025               
   126 r.130                 2002.98       41.5526               
   127 r.131                    1024             2               
   128 r.132                   -1024         -1025               
   129 r.133                 2053.65      -1018.96               
   130 r.134                       2             2               
   131 r.135                      -2         -1025               
   132 r.136                -36.8992      -1015.88               
   133 r.137                    1024             2               
   134 r.138                   -1024         -1025               
   135 r.139                 2082.55       -1013.2               
   136 r.140                       2             2               
   137 r.141                      -2         -1025               
   138 r.142                -989.449      -1003.45               
   139 r.143                 53.4972             0               
   140 r.144                 30.4144             0               
   141 r.145                 53.4972             0               
   142 r.146                 30.4144             0               
   143 r.147                -956.425      -956.425               
   144 r.148                 67.5752      -888.291               
   145 r.149                -956.425      -956.425               
   146 r.150                 67.5752      -888.291               
   147 r.151                 67.5752      -994.818               
   148 r.152                -956.425      -990.976               
   149 r.153                 67.5752      -994.818               
   150 r.154                -956.425      -990.976               
   151 r.155                    1025             2               
   152 r.156                   -1025         -1025               
   153 r.157                  2025.4       22.4134               
   154 r.158                    1025             2               
   155 r.159                   -1025         -1025               
   156 r.160                 2078.68       41.1565               
   157 r.161                    1025             2               
   158 r.162                   -1025         -1025               
   159 r.163                    2048       22.6037               
   160 r.164                    1025             2               
   161 r.165                   -1025         -1025               
   162 r.166                 2033.66       41.5526               
   163 r.167                    1024             2               
   164 r.168                   -1024         -1025               
   165 r.169                 2056.48        2.5361               
   166 r.170                       2             2               
   167 r.171                      -2         -1025               
   168 r.172                 21.3503       5.27333               
   169 r.173                    1024             2               
   170 r.174                   -1024         -1025               
   171 r.175                 2082.55       -1013.2               
   172 r.176                       2             2               
   173 r.177                      -2         -1025               
   174 r.178                -958.769      -1003.45               
   175 r.179                 50.6705             0               
   176 r.180                       0             0               
   177 r.181                 50.6705             0               
   178 r.182                       0             0               
   179 r.183                -956.425      -956.425               
   180 r.184                 67.5752      -888.291               
   181 r.185                -925.745      -956.425               
   182 r.186                 98.2549      -888.291               
   183 r.187                    1024             2               
   184 r.188                   -1024         -1025               
   185 r.189                 2115.58      -994.818               
   186 r.190                       2             2               
   187 r.191                      -2         -1025               
   188 r.192                -925.745      -990.976               
   189 r.193                    1025             2               
   190 r.194                   -1025         -1025               
   191 r.195                 1990.85       22.4134               
   192 r.196                    1025             2               
   193 r.197                   -1025         -1025               
   194 r.198                 2013.45       41.1565               
   195 r.199                    1025             2               
   196 r.200                   -1025         -1025               
   197 r.201                 2013.45       22.6037               
   198 r.202                    1025             2               
   199 r.203                   -1025         -1025               
   200 r.204                 1968.43       41.5526               
   201 r.205                    1024             2               
   202 r.206                   -1024         -1025               
   203 r.207                 2021.93        2.5361               
   204 r.208                       2             2               
   205 r.209                      -2         -1025               
   206 r.210                  980.12       5.27333               
   207 r.211                    1024             2               
   208 r.212                   -1024         -1025               
   209 r.213                  2019.1        5.0448               
   210 r.214                       2             2               
   211 r.215                      -2         -1025               
   212 r.216                  952.55       8.11786               
   213 r.217                  79.568             0               
   214 r.218                 59.0212             0               
   215 r.219                  79.568             0               
   216 r.220                 59.0212             0               
   217 r.221                    1025             2               
   218 r.222                   -1025         -1025               
   219 r.223                 2081.02      -956.425               
   220 r.224                    1025             2               
   221 r.225                   -1025         -1025               
   222 r.226                 2081.02      -888.291               
   223 r.227                 33.0243      -994.818               
   224 r.228                -990.976      -990.976               
   225 r.229                 33.0243      -994.818               
   226 r.230                -990.976      -990.976               
   227 r.231                -911.408      -956.425               
   228 r.232                 112.592      -888.291               
   229 r.233                -911.408      -956.425               
   230 r.234                 112.592      -888.291               
   231 r.235                    1025             2               
   232 r.236                   -1025         -1025               
   233 r.237                 2014.98       10.7989               
   234 r.238                    1025             2               
   235 r.239                   -1025         -1025               
   236 r.240                 2014.98       20.5468               
   237 r.241                    1025             2               
   238 r.242                   -1025         -1025               
   239 r.243                    2048      -994.818               
   240 r.244                    1025             2               
   241 r.245                   -1025         -1025               
   242 r.246                    2048      -990.976               
   243 r.247                    1025             2               
   244 r.248                   -1025         -1025               
   245 r.249                 1980.42       22.6037               
   246 r.250                    1025             2               
   247 r.251                   -1025         -1025               
   248 r.252                 1935.41       41.5526               
   249 r.253                    1024             2               
   250 r.254                   -1024         -1025               
   251 r.255                 1986.08        5.0448               
   252 r.256                       2             2               
   253 r.257                      -2         -1025               
   254 r.258                 919.526       8.11786               
   255 r.259                    1025             2               
   256 r.260                   -1025         -1025               
   257 r.261                    2048       67.5752               
   258 r.262                    1025             2               
   259 r.263                   -1025         -1025               
   260 r.264                    2048       135.709               

   No. Column name       Activity     Lower bound   Upper bound
------ ------------    ------------- ------------- -------------
     1 tt                    116.592             0               
     2 s_1_1        *              1             0             1 
     3 t_1_1                 90.1789             0               
     4 s_1_7        *              1             0             1 
     5 s_2_1        *              0             0             1 
     6 t_2_1                 67.5752             0               
     7 s_2_7        *              0             0             1 
     8 s_1_2        *              1             0             1 
     9 t_1_2                 67.5752             0               
    10 s_2_2        *              0             0             1 
    11 t_2_2                 112.592             0               
    12 s_1_3        *              0             0             1 
    13 t_1_3                 67.5752             0               
    14 s_2_3        *              1             0             1 
    15 t_2_3                 67.5752             0               
    16 s_1_4        *              0             0             1 
    17 t_1_4                 67.5752             0               
    18 s_2_4        *              1             0             1 
    19 t_2_4                 98.2549             0               
    20 s_1_5        *              0             0             1 
    21 t_1_5                 33.0243             0               
    22 s_1_8        *              0             0             1 
    23 s_2_5        *              1             0             1 
    24 t_2_5                 33.0243             0               
    25 s_2_8        *              1             0             1 
    26 s_1_6        *              0             0             1 
    27 t_1_6                 112.592             0               
    28 s_2_6        *              1             0             1 
    29 t_2_6                 112.592             0               
    30 t_1_7                       0             0               
    31 t_2_7                       0             0               
    32 t_1_8                       0             0               
    33 t_2_8                       0             0               
    34 r_1_1_2      *              0             0             1 
    35 u_1_1_2      *              1             0             1 
    36 r_2_1_2      *              1             0             1 
    37 u_2_1_2      *              0             0             1 
    38 r_1_1_3      *              1             0             1 
    39 u_1_1_3      *              0             0             1 
    40 r_2_1_3      *              1             0             1 
    41 u_2_1_3      *              0             0             1 
    42 r_1_1_4      *              1             0             1 
    43 u_1_1_4      *              0             0             1 
    44 r_2_1_4      *              1             0             1 
    45 u_2_1_4      *              0             0             1 
    46 r_1_1_5      *              1             0             1 
    47 u_1_1_5      *              0             0             1 
    48 r_2_1_5      *              1             0             1 
    49 u_2_1_5      *              0             0             1 
    50 r_1_2_3      *              1             0             1 
    51 u_1_2_3      *              0             0             1 
    52 r_2_2_3      *              1             0             1 
    53 u_2_2_3      *              0             0             1 
    54 r_1_2_4      *              1             0             1 
    55 u_1_2_4      *              0             0             1 
    56 r_2_2_4      *              1             0             1 
    57 u_2_2_4      *              0             0             1 
    58 r_1_2_5      *              1             0             1 
    59 u_1_2_5      *              0             0             1 
    60 r_2_2_5      *              1             0             1 
    61 u_2_2_5      *              0             0             1 
    62 r_1_2_8      *              1             0             1 
    63 u_1_2_8      *              0             0             1 
    64 r_2_2_8      *              1             0             1 
    65 u_2_2_8      *              0             0             1 
    66 r_1_3_4      *              1             0             1 
    67 u_1_3_4      *              0             0             1 
    68 r_2_3_4      *              0             0             1 
    69 u_2_3_4      *              0             0             1 
    70 r_1_3_5      *              1             0             1 
    71 u_1_3_5      *              0             0             1 
    72 r_2_3_5      *              0             0             1 
    73 u_2_3_5      *              1             0             1 
    74 r_1_4_5      *              1             0             1 
    75 u_1_4_5      *              0             0             1 
    76 r_2_4_5      *              0             0             1 
    77 u_2_4_5      *              1             0             1 
    78 r_1_4_8      *              1             0             1 
    79 u_1_4_8      *              0             0             1 
    80 r_2_4_8      *              0             0             1 
    81 u_2_4_8      *              1             0             1 
    82 r_1_5_7      *              1             0             1 
    83 u_1_5_7      *              0             0             1 
    84 r_2_5_7      *              1             0             1 
    85 u_2_5_7      *              0             0             1 
    86 r_1_7_8      *              1             0             1 
    87 u_1_7_8      *              0             0             1 
    88 r_2_7_8      *              1             0             1 
    89 u_2_7_8      *              0             0             1 

Integer feasibility conditions:

KKT.PE: max.abs.err = 4.55e-13 on row 49
        max.rel.err = 1.10e-16 on row 236
        High quality

KKT.PB: max.abs.err = 1.14e-13 on row 24
        max.rel.err = 2.84e-14 on row 102
        High quality

End of output
